num_clientes = 2;
num_dias = 7;
num_plantas = 3;
min_porcent_demanda = 30;
reg_alto_dias = 4;
reg_alto_porcent = 95;
costo = [100, 50, 80];
capacidad = [300, 200, 600];
pago = [200, 100];
demanda = [|100, 50, 70, 200, 50, 250, 100
|200, 80, 50, 100, 100, 200, 150
        |];
